RT is False
Default write of storage_offers_DA.csv just to have a file (but constraint should be inactive)
Reading model...
...model read.
creating competitive generators file...
...competitive generators recorded.
Loading data...
.. day-ahead data with real-time VRE data read.
Compiling instance...
...instance created.
Creating Offer Mitigation (model will solve as dispatch if TRUE)...
NOTE: storage offers will not be mitigated
...storage offer mitigation file created
Converting model to MPEC...
...converted
NOTE: initial MIP solve with only storage competitive to get feasible solution
Solving...

Welcome to IBM(R) ILOG(R) CPLEX(R) Interactive Optimizer 12.8.0.0
  with Simplex, Mixed Integer & Barrier Optimizers
5725-A06 5725-A29 5724-Y48 5724-Y49 5724-Y54 5724-Y55 5655-Y21
Copyright IBM Corp. 1988, 2017.  All Rights Reserved.

Type 'help' for a list of available commands.
Type 'help' followed by a command name for more
information on commands.

CPLEX> Logfile 'cplex.log' closed.
Logfile 'C:\Users\llavi\Desktop\test919\logs\tmp5n84et3c.cplex.log' open.
CPLEX> New value for parallel optimization mode: -1
CPLEX> New value for mixed integer optimality gap tolerance: 0.01
CPLEX> New value for integrality tolerance: 1e-09
CPLEX> New value for feasibility tolerance: 0.01
CPLEX> New value for deterministic time limit in ticks: 75000
CPLEX> Problem 'C:\Users\llavi\Desktop\test919\logs\tmphhg60yf8.pyomo.lp' read.
Read time = 0.28 sec. (13.50 ticks)
CPLEX> Problem name         : C:\Users\llavi\Desktop\test919\logs\tmphhg60yf8.pyomo.lp
Objective sense      : Maximize
Variables            :   54021  [Nneg: 1,  Box: 22008,  Free: 4464,
                                 Binary: 27548]
Objective nonzeros   :    8980
Linear constraints   :  123829  [Less: 41554,  Greater: 59512,  Equal: 22763]
  Nonzeros           :  300593
  RHS nonzeros       :   67901

Variables            : Min LB: -5000.000        Max UB: 1000000.       
Objective nonzeros   : Min   : 0.4000000        Max   : 828.2917       
Linear constraints   :
  Nonzeros           : Min   : 0.001000000      Max   : 1000000.       
  RHS nonzeros       : Min   : 0.4000000        Max   : 1000000.       
CPLEX> CPXPARAM_Simplex_Tolerances_Feasibility          0.01
CPXPARAM_Parallel                                -1
CPXPARAM_DetTimeLimit                            75000
CPXPARAM_MIP_Tolerances_MIPGap                   0.01
CPXPARAM_MIP_Tolerances_Integrality              1.0000000000000001e-09
Tried aggregator 3 times.
MIP Presolve eliminated 89301 rows and 19193 columns.
MIP Presolve added 3395 rows and 0 columns.
MIP Presolve modified 23866 coefficients.
Aggregator did 13042 substitutions.
Reduced MIP has 24881 rows, 21230 columns, and 71017 nonzeros.
Reduced MIP has 8400 binaries, 0 generals, 0 SOSs, and 0 indicators.
Presolve time = 0.25 sec. (169.91 ticks)
Probing fixed 394 vars, tightened 2824 bounds.
Probing time = 3.09 sec. (885.10 ticks)
Tried aggregator 2 times.
MIP Presolve eliminated 891 rows and 793 columns.
MIP Presolve modified 2190 coefficients.
Aggregator did 44 substitutions.
Reduced MIP has 23946 rows, 20393 columns, and 68305 nonzeros.
Reduced MIP has 8004 binaries, 0 generals, 0 SOSs, and 0 indicators.
Presolve time = 0.14 sec. (55.88 ticks)
Probing time = 0.05 sec. (15.52 ticks)
Clique table members: 6429.
MIP emphasis: balance optimality and feasibility.
MIP search method: dynamic search.
Parallel mode: opportunistic, using up to 4 threads.
Root relaxation solution time = 0.53 sec. (490.04 ticks)

        Nodes                                         Cuts/
   Node  Left     Objective  IInf  Best Integer    Best Bound    ItCnt     Gap

      0     0     3307.2736   761                   3307.2736     3964         
      0     0     3307.2736    17                    Cuts: 22     3973         
      0     0     3307.2736    14                     Cuts: 9     3976         
      0     0     3307.2736    13                     Cuts: 6     3977         
      0     3     3288.6782     8                   3307.2736     3978         
Elapsed time = 14.91 sec. (5375.06 ticks, tree = 0.02 MB, solutions = 0)
     97    80    -1201.4744     2                   3277.4541     4430         
    165   138      -97.8023    27                   3277.4541     4827         
    258   216   -62090.7518     2                   3277.4541     6662         
*   318+   83                        -2866.0999     3277.4541           214.35%
    374    96     3206.0564     1    -2866.0999     3277.4541     7428  214.35%
    431   158     3144.2972     1    -2866.0999     3277.4541     7793  214.35%
    488   181     2923.7823     2    -2866.0999     3277.4541     7997  214.35%
    545   244     2719.6261     1    -2866.0999     3277.4541     8520  214.35%
    600   260     2965.7194     2    -2866.0999     3255.8539     8672  213.60%
    809   381     1542.6158     1    -2866.0999     3255.8539     9305  213.60%
Elapsed time = 20.97 sec. (8433.12 ticks, tree = 2.39 MB, solutions = 1)
    997   479      886.2853     3    -2866.0999     3255.8539     9874  213.60%
   1178   629     2780.8077     1    -2866.0999     3255.8539    10502  213.60%
   1381   787     3241.2730     4    -2866.0999     3255.8539    11242  213.60%
   1649   799     1177.1477     5    -2866.0999     3255.8539    11277  213.60%
   1823  1107     3137.4308     2    -2866.0999     3255.8539    12574  213.60%
   2009  1240     3188.5873     1    -2866.0999     3247.1429    13082  213.29%
   2120  1337     2941.8991     1    -2866.0999     3247.1429    13446  213.29%
   2227  1400     3164.1849     1    -2866.0999     3243.2681    13668  213.16%
   2297  1414     3164.1849     1    -2866.0999     3243.2681    13755  213.16%
   2382  1438        cutoff          -2866.0999     3242.2013    13866  213.12%
Elapsed time = 37.02 sec. (18026.94 ticks, tree = 10.84 MB, solutions = 1)
   2459  1439     3187.6609     1    -2866.0999     3242.2013    13873  213.12%
   2460  1502     3274.4493     5    -2866.0999     3242.2013    21331  213.12%
   2666    94     3241.2904     1        0.6020     3242.2013    21976     --- 
   2885   258     3213.3135     2        0.6020     3242.2013    22698     --- 
   3061   401     1956.2532     3        0.6020     3242.2013    23403     --- 
   3224   496     3255.8539     4        0.6020     3242.2013    23884     --- 
   3408   658     3075.4359     2        0.6020     3242.2013    24521     --- 
   3528   740     3151.5543     1        0.6020     3242.2013    24831     --- 
   3681   839        cutoff              0.6020     3242.2013    25276     --- 
*  3860   904      integral     0      724.1148     3242.2013    25534  347.75%
   3897   935     2401.4796     1      724.1148     3242.2013    25701  347.75%
Elapsed time = 64.34 sec. (29440.30 ticks, tree = 7.11 MB, solutions = 4)
   4112  1091     3158.0054     2      724.1148     3242.2013    26501  347.75%
   4278  1155     3018.0563     1      724.1148     3242.2013    26754  347.75%
   4478  1316     3213.3135     1      724.1148     3242.2013    27410  347.75%
   4625  1450        cutoff            724.1148     3242.2013    27965  347.75%
   4792  1502     3120.7817     1      724.1148     3242.2013    28165  347.75%
   5005  1700     2214.5414     1      724.1148     3242.2013    29040  347.75%
   5176  1789     2887.7777     1      724.1148     3242.2013    29377  347.75%
   5309  1913     2975.7520     1      724.1148     3242.2013    29932  347.75%
   5542  2088     2980.2151     2      724.1148     3242.2013    30770  347.75%
   5738  2163        cutoff            724.1148     3242.2013    31069  347.75%
Elapsed time = 87.25 sec. (39127.58 ticks, tree = 17.97 MB, solutions = 4)
   5877  2296     2988.2360     1      724.1148     3242.2013    31639  347.75%
   6103  2475        cutoff            724.1148     3242.2013    32485  347.75%
   6261  2568     3213.3135     2      724.1148     3242.2013    32849  347.75%
   6345  2668     2401.4796     1      724.1148     3242.2013    33216  347.75%
   6571  2782     3132.1860     2      724.1148     3242.2013    33666  347.75%
   6790  2961     2964.8911     1      724.1148     3242.2013    34451  347.75%
   6914  3020     2777.2039     2      724.1148     3242.2013    34686  347.75%
   7089  3249     3132.8668     3      724.1148     3242.2013    35672  347.75%
   7284  3268     2218.6720     1      724.1148     3242.2013    35756  347.75%
   7466  3354        cutoff            724.1148     3242.2013    36096  347.75%
Elapsed time = 108.94 sec. (48690.73 ticks, tree = 28.31 MB, solutions = 4)
   7638  3622     3152.0171     2      724.1148     3242.2013    37211  347.75%
   7829  3610     2797.8402     1      724.1148     3242.2013    37163  347.75%
   8075  3747     2988.2360     1      724.1148     3242.2013    37801  347.75%
   8316  3969     3133.2225     2      724.1148     3242.2013    38731  347.75%
   8422  4130     2081.3390     2      724.1148     3242.2013    39466  347.75%
   8561  4187     3164.4564     4      724.1148     3242.2013    39723  347.75%
   8770  4224     1293.4371     1      724.1148     3242.2013    39869  347.75%
   9001  4310     3134.5673     1      724.1148     3242.2013    40285  347.75%
*  9207  4607      integral     0     2961.7577     3242.2013    41542    9.47%
   9279  4376     2788.0648     1     2961.7577     3242.2013    40596    9.47%
   9533  4544    infeasible           2961.7577     3242.2013    41317    9.47%
Elapsed time = 128.88 sec. (58267.24 ticks, tree = 21.86 MB, solutions = 5)
   9789  2831     3158.0054     2     2961.7577     3242.2013    43209    9.47%
   9892  2787     2980.0523     3     2961.7577     3242.2013    42913    9.47%
  10069  3029     3213.3135     3     2961.7577     3242.2013    44365    9.47%
  10328  3029     3042.7403     1     2961.7577     3242.2013    44390    9.47%
  10642  3173     3094.7413     1     2961.7577     3242.2013    45222    9.47%
  10928  3438     2988.2360     2     2961.7577     3242.2013    46880    9.47%
  11236  3474     3247.1486     3     2961.7577     3242.2013    47105    9.47%
  11445  3627     3133.2225     2     2961.7577     3242.2013    47949    9.47%
  11543  3729     3007.0479     3     2961.7577     3242.2013    48521    9.47%
  11777  3754     2980.2151     3     2961.7577     3242.2013    48752    9.47%
Elapsed time = 150.70 sec. (67882.70 ticks, tree = 30.71 MB, solutions = 5)
  12126  3790     3151.5543     1     2961.7577     3242.2013    48964    9.47%
  12398  3922     2980.2151     3     2961.7577     3242.2013    49642    9.47%
  12695  4235     3248.5898     3     2961.7577     3242.2013    51500    9.47%
  13002  4142     2988.2360     3     2961.7577     3242.2013    50909    9.47%
  13273  4410     3042.7403     2     2961.7577     3242.2013    52445    9.47%
  13457  4588     3151.5543     1     2961.7577     3242.2013    53514    9.47%
  13604  4569     3196.3111     1     2961.7577     3242.2013    53436    9.47%

Cover cuts applied:  1
Flow cuts applied:  8
Mixed integer rounding cuts applied:  3
Gomory fractional cuts applied:  10

Root node processing (before b&c):
  Real time             =   14.69 sec. (5362.10 ticks)
Parallel b&c, 4 threads:
  Real time             =  149.66 sec. (69652.93 ticks)
  Sync time (average)   =    0.30 sec.
  Wait time (average)   =    0.04 sec.
                          ------------
Total (root+branch&cut) =  164.34 sec. (75015.03 ticks)

Solution pool: 5 solutions saved.

MIP - Deterministic time limit exceeded, integer feasible:  Objective =  2.9617576909e+03
Current MIP best bound =  3.2422013440e+03 (gap = 280.444, 9.47%)
Solution time =  164.34 sec.  Iterations = 54372  Nodes = 13685 (4727)
Deterministic time = 75015.19 ticks  (456.46 ticks/sec)

CPLEX> Incumbent solution written to file 'C:\Users\llavi\Desktop\test919\logs\tmplkhq2ny0.cplex.sol'.
CPLEX> NOTE: no warmstart specified for MIP iteration, default behavior is true
NOTE: resolving with all competitive generators using storage-only solution to warmstart
Solving...

Welcome to IBM(R) ILOG(R) CPLEX(R) Interactive Optimizer 12.8.0.0
  with Simplex, Mixed Integer & Barrier Optimizers
5725-A06 5725-A29 5724-Y48 5724-Y49 5724-Y54 5724-Y55 5655-Y21
Copyright IBM Corp. 1988, 2017.  All Rights Reserved.

Type 'help' for a list of available commands.
Type 'help' followed by a command name for more
information on commands.

CPLEX> Logfile 'cplex.log' closed.
Logfile 'C:\Users\llavi\Desktop\test919\logs\tmpjn1vi6op.cplex.log' open.
CPLEX> New value for parallel optimization mode: -1
CPLEX> New value for mixed integer optimality gap tolerance: 0.01
CPLEX> New value for integrality tolerance: 1e-09
CPLEX> New value for feasibility tolerance: 0.01
CPLEX> New value for deterministic time limit in ticks: 75000
CPLEX> Problem 'C:\Users\llavi\Desktop\test919\logs\tmpod27sxvd.pyomo.lp' read.
Read time = 0.27 sec. (13.52 ticks)
CPLEX> MIP start file 'C:\Users\llavi\Desktop\test919\logs\tmpb8e8_v92.cplex.mst' read.
CPLEX> Problem name         : C:\Users\llavi\Desktop\test919\logs\tmpod27sxvd.pyomo.lp
Objective sense      : Maximize
Variables            :   54741  [Nneg: 1,  Box: 22728,  Free: 4464,
                                 Binary: 27548]
Objective nonzeros   :    9700
Linear constraints   :  123829  [Less: 41554,  Greater: 59512,  Equal: 22763]
  Nonzeros           :  300593
  RHS nonzeros       :   67901

Variables            : Min LB: -5000.000        Max UB: 1000000.       
Objective nonzeros   : Min   : 0.4000000        Max   : 828.2917       
Linear constraints   :
  Nonzeros           : Min   : 0.001000000      Max   : 1000000.       
  RHS nonzeros       : Min   : 0.4000000        Max   : 1000000.       
CPLEX> CPXPARAM_Simplex_Tolerances_Feasibility          0.01
CPXPARAM_Parallel                                -1
CPXPARAM_DetTimeLimit                            75000
CPXPARAM_MIP_Tolerances_MIPGap                   0.01
CPXPARAM_MIP_Tolerances_Integrality              1.0000000000000001e-09
Warning:  No solution found from 1 MIP starts.
Retaining values of one MIP start for possible repair.
Tried aggregator 3 times.
MIP Presolve eliminated 89301 rows and 19913 columns.
MIP Presolve added 3395 rows and 0 columns.
MIP Presolve modified 23866 coefficients.
Aggregator did 13042 substitutions.
Reduced MIP has 24881 rows, 21230 columns, and 71017 nonzeros.
Reduced MIP has 8400 binaries, 0 generals, 0 SOSs, and 0 indicators.
Presolve time = 0.23 sec. (170.28 ticks)
Probing fixed 394 vars, tightened 2824 bounds.
Probing time = 3.17 sec. (885.10 ticks)
Tried aggregator 2 times.
MIP Presolve eliminated 891 rows and 793 columns.
MIP Presolve modified 2190 coefficients.
Aggregator did 44 substitutions.
Reduced MIP has 23946 rows, 20393 columns, and 68305 nonzeros.
Reduced MIP has 8004 binaries, 0 generals, 0 SOSs, and 0 indicators.
Presolve time = 0.11 sec. (55.86 ticks)
Probing time = 0.05 sec. (15.52 ticks)
Clique table members: 6429.
MIP emphasis: balance optimality and feasibility.
MIP search method: dynamic search.
Parallel mode: opportunistic, using up to 4 threads.
Root relaxation solution time = 0.61 sec. (496.12 ticks)

        Nodes                                         Cuts/
   Node  Left     Objective  IInf  Best Integer    Best Bound    ItCnt     Gap

      0     0     3307.2736   751                   3307.2736     4005         
      0     0     3307.2736    12                    Cuts: 15     4010         
      0     0     3307.2736    11                     Cuts: 4     4012         
      0     0     3307.2736    10                 Flowcuts: 1     4014         
Repair heuristic found nothing.
      0     2     3307.2736    10                   3307.2736     4014         
Elapsed time = 21.88 sec. (7383.13 ticks, tree = 0.03 MB, solutions = 0)
     72    65    -1201.4744    16                   3277.4541     4368         
    142   105   -15631.8410     8                   3277.4541     4714         
    240   165   -70773.3844     2                   3277.4541     6024         
*   277   183      integral     0   -69465.6960     3277.4541     6754  104.72%
    312   191  -309254.4576     7   -69465.6960     3277.4541     7060  104.72%
    355   218    -7859.9983     5   -69465.6960     3277.4541     7737  104.72%
    417   273     3121.5037     2   -69465.6960     3277.4541     7992  104.72%
    480   306      371.5715    20   -69465.6960     3277.4541     8200  104.72%
*   486   295      integral     0    -1028.8862     3277.4541     8142  418.54%
    530   228     3255.8539     6    -1028.8862     3255.8539     8550  416.44%
    574   234     3126.3563     1    -1028.8862     3255.8539     8646  416.44%
    747   376     2957.6711     1    -1028.8862     3255.8539     9190  416.44%
Elapsed time = 28.03 sec. (10522.81 ticks, tree = 2.30 MB, solutions = 2)
    935   508     2988.2360     2    -1028.8862     3255.8539     9793  416.44%
   1137   595     1815.4622     4    -1028.8862     3255.8539    10085  416.44%
   1334   792     3035.3071     3    -1028.8862     3255.8539    10903  416.44%
   1486   853     3083.9733     1    -1028.8862     3255.8539    11184  416.44%
   1611   975        cutoff          -1028.8862     3255.8539    11625  416.44%
   1701  1025     3143.0139     1    -1028.8862     3255.8539    11802  416.44%
   1778  1064    infeasible          -1028.8862     3255.8539    12041  416.44%
   1834  1072        cutoff          -1028.8862     3255.8539    12103  416.44%
   1895  1085       80.1368     1    -1028.8862     3255.8539    12176  416.44%
   1983  1140     3231.4106     1    -1028.8862     3255.8539    12416  416.44%
Elapsed time = 43.16 sec. (20157.69 ticks, tree = 8.30 MB, solutions = 2)
   2159  1227     3222.4571     3    -1028.8862     3247.1486    12819  415.60%
   2235  1273     3152.2798     1    -1028.8862     3247.1486    12981  415.60%
   2297  1274        cutoff          -1028.8862     3247.1429    12995  415.60%
   2362  1304     3152.2798     1    -1028.8862     3247.1429    13157  415.60%
   2399  1302        cutoff          -1028.8862     3247.1429    13182  415.60%
   2448  1304        cutoff          -1028.8862     3247.1429    13207  415.60%
   2511  1313    infeasible          -1028.8862     3247.1429    13277  415.60%
   2580  1313        cutoff          -1028.8862     3243.2815    13298  415.22%
   2642  1326     2595.4744     1    -1028.8862     3243.2815    13381  415.22%
   2688  1331     2595.4744     1    -1028.8862     3243.2815    13421  415.22%
Elapsed time = 57.78 sec. (30000.55 ticks, tree = 9.90 MB, solutions = 2)
   2719  1331        cutoff          -1028.8862     3243.2815    13457  415.22%
   2777  1343        cutoff          -1028.8862     3243.2815    13524  415.22%
   2837  1346        cutoff          -1028.8862     3243.2815    13583  415.22%
   2897  1353     2595.4744     1    -1028.8862     3243.2815    13625  415.22%
   2936  1353        cutoff          -1028.8862     3243.2815    13651  415.22%
   2996  1359     2595.4744     1    -1028.8862     3243.2815    13716  415.22%
   3037  1358        cutoff          -1028.8862     3243.2815    13745  415.22%
   3111  1378        cutoff          -1028.8862     3243.2815    13880  415.22%
   3193  1407     1012.3957     4    -1028.8862     3243.2681    14108  415.22%
   3282  1427        cutoff          -1028.8862     3243.2681    14263  415.22%
Elapsed time = 71.89 sec. (39739.20 ticks, tree = 10.63 MB, solutions = 2)
   3347  1381        cutoff          -1028.8862     3243.2681    13994  415.22%
   3399  1445     3187.6609     1    -1028.8862     3243.2681    14340  415.22%
   3432  1446        cutoff          -1028.8862     3243.2681    14371  415.22%
   3484  1447        cutoff          -1028.8862     3242.2169    14441  415.12%
   3523  1448     3179.8980     1    -1028.8862     3242.2169    14445  415.12%
   3578  1469     3143.0139     1    -1028.8862     3242.2169    14544  415.12%
   3683  1446        cutoff          -1028.8862     3242.2169    14470  415.12%
   3729  1503        cutoff          -1028.8862     3242.2013    14697  415.12%
   3782  1506     3165.1114     1    -1028.8862     3242.2013    14726  415.12%
   3826  1501        cutoff          -1028.8862     3242.2013    14742  415.12%
Elapsed time = 85.34 sec. (49396.27 ticks, tree = 11.14 MB, solutions = 2)
   3860  1502     3143.0139     1    -1028.8862     3242.2013    14746  415.12%
   3915  1508     3165.1114     1    -1028.8862     3241.2904    14806  415.03%
   4018  1510        cutoff          -1028.8862     3241.2904    14876  415.03%
   4108  1511     3164.1849     1    -1028.8862     3241.2904    14924  415.03%
   4190  1569     3194.0774     1    -1028.8862     3241.2904    15430  415.03%
   4234  1583     3194.0774     1    -1028.8862     3241.2904    15522  415.03%
   4273  1581        cutoff          -1028.8862     3241.2904    15546  415.03%
   4325  1596     3213.2504     3    -1028.8862     3241.2904    15638  415.03%
   4399  1584     3175.7557     3    -1028.8862     3241.2904    15576  415.03%
   4459  1584     3194.0774     1    -1028.8862     3241.2904    15583  415.03%
Elapsed time = 99.27 sec. (59153.81 ticks, tree = 11.99 MB, solutions = 2)
   4515  1618     3187.6609     1    -1028.8862     3241.2904    15825  415.03%
   4561  1617        cutoff          -1028.8862     3241.2904    15840  415.03%
   4594  1624     3164.1849     1    -1028.8862     3241.2904    15921  415.03%
   4658  1624     3164.1849     1    -1028.8862     3241.2904    15925  415.03%
   4725  1643        cutoff          -1028.8862     3241.2904    16005  415.03%
   4791  1626        cutoff          -1028.8862     3241.2904    15997  415.03%
   4830  1666     3241.2730     4    -1028.8862     3241.2904    16234  415.03%
   4872  1667        cutoff          -1028.8862     3241.2904    16404  415.03%
   4881  1672        cutoff          -1028.8862     3241.2730    23612  415.03%
   4985    40      605.9776     4    -1028.8862     3241.2730    23833  415.03%
Elapsed time = 124.02 sec. (72048.45 ticks, tree = 0.13 MB, solutions = 2)
   5081    55     2236.8268     1    -1028.8862     3241.2730    23962  415.03%
   5149   104     3164.0819     3    -1028.8862     3241.2730    24296  415.03%
   5237    97        cutoff          -1028.8862     3241.2730    24333  415.03%

Cover cuts applied:  4
Implied bound cuts applied:  3
Flow cuts applied:  10
Mixed integer rounding cuts applied:  3
Gomory fractional cuts applied:  14

Root node processing (before b&c):
  Real time             =   21.56 sec. (7341.93 ticks)
Parallel b&c, 4 threads:
  Real time             =  108.06 sec. (67692.34 ticks)
  Sync time (average)   =    0.55 sec.
  Wait time (average)   =    0.03 sec.
                          ------------
Total (root+branch&cut) =  129.63 sec. (75034.27 ticks)

Solution pool: 2 solutions saved.

MIP - Deterministic time limit exceeded, integer feasible:  Objective = -1.0288861637e+03
Current MIP best bound =  3.2412730376e+03 (gap = 4270.16, 415.03%)
Solution time =  129.64 sec.  Iterations = 24748  Nodes = 5239 (147)
Deterministic time = 75034.42 ticks  (578.79 ticks/sec)

CPLEX> Incumbent solution written to file 'C:\Users\llavi\Desktop\test919\logs\tmpa1gcq8kk.cplex.sol'.
CPLEX> Exporting results... 
